solution status: optimal solution found
objective value:                                    0
shell_i_bank.sieve_ctrl_hole                        1 	(obj:0)
shell_j_$_36__1                                     1 	(obj:0)
shell_j_$_33__1                                     1 	(obj:0)
shell_j_$_25__1                                     1 	(obj:0)
shell_j_bank.pump3_flush_hole                       1 	(obj:0)
shell_i_$_34__1                                     1 	(obj:0)
shell_i_bank.sep_ctrl_hole                          1 	(obj:0)
shell_j_$_14__1                                     1 	(obj:0)
shell_j_$_22__1                                     1 	(obj:0)
shell_j_bank.pump1_hole                             1 	(obj:0)
shell_j_$_12__1                                     1 	(obj:0)
shell_j_$_20__1                                     1 	(obj:0)
shell_j_$_21__1                                     1 	(obj:0)
shell_j_bank.pump1_flush_hole                       1 	(obj:0)
shell_j_bank.pump3_hole                             1 	(obj:0)
shell_j_bank.sieve_flush_hole                       1 	(obj:0)
shell_j_$_13__1                                     1 	(obj:0)
shell_j_$_23__1                                     1 	(obj:0)
shell_j_bank.pump2_flush_hole                       1 	(obj:0)
shell_j_bank.sep_flush_hole                         1 	(obj:0)
shell_j_$_11__1                                     1 	(obj:0)
shell_j_$_26__1                                     1 	(obj:0)
shell_j_bank.pump2_hole                             1 	(obj:0)
shell_j_$_27__1                                     1 	(obj:0)
shell_j_$_24__1                                     1 	(obj:0)
shell_j_$_35__1                                     1 	(obj:0)
$_12__1_z                                         -12 	(obj:0)
bank.pump3_flush_hole_y                             3 	(obj:0)
$_20__1_x                                          -2 	(obj:0)
$_20__1_y                                          -3 	(obj:0)
$_20__1_z                                           3 	(obj:0)
bank.pump3_flush_hole_z                           -17 	(obj:0)
bank.sieve_ctrl_hole_z                             -5 	(obj:0)
$_21__1_x                                          -1 	(obj:0)
$_21__1_y                                          -3 	(obj:0)
$_21__1_z                                          -5 	(obj:0)
bank.sieve_ctrl_hole_x                             -3 	(obj:0)
$_34__1_x                                           3 	(obj:0)
bank.pump1_flush_hole_x                            -3 	(obj:0)
bank.pump1_flush_hole_y                             3 	(obj:0)
bank.pump1_flush_hole_z                           -15 	(obj:0)
$_34__1_z                                          -5 	(obj:0)
bank.pump3_hole_x                                  -1 	(obj:0)
bank.pump3_hole_y                                   3 	(obj:0)
bank.pump3_hole_z                                 -17 	(obj:0)
$_33__1_x                                          -2 	(obj:0)
$_33__1_y                                          -3 	(obj:0)
bank.sieve_flush_hole_x                            -3 	(obj:0)
bank.sieve_flush_hole_y                            -3 	(obj:0)
bank.sieve_flush_hole_z                            -5 	(obj:0)
bank.sep_ctrl_hole_x                               -3 	(obj:0)
$_13__1_x                                           3 	(obj:0)
$_13__1_y                                           3 	(obj:0)
$_13__1_z                                         -17 	(obj:0)
bank.sep_ctrl_hole_z                              -11 	(obj:0)
$_33__1_z                                          -5 	(obj:0)
$_23__1_x                                           2 	(obj:0)
$_23__1_y                                           3 	(obj:0)
$_23__1_z                                          -9 	(obj:0)
$_14__1_x                                           3 	(obj:0)
bank.pump2_flush_hole_x                            -2 	(obj:0)
bank.pump2_flush_hole_y                             3 	(obj:0)
bank.pump2_flush_hole_z                           -17 	(obj:0)
$_14__1_y                                           3 	(obj:0)
$_14__1_z                                          -9 	(obj:0)
bank.sep_flush_hole_x                              -2 	(obj:0)
bank.sep_flush_hole_y                               3 	(obj:0)
bank.sep_flush_hole_z                             -11 	(obj:0)
$_36__1_x                                          -2 	(obj:0)
$_25__1_x                                           3 	(obj:0)
$_11__1_x                                           3 	(obj:0)
$_11__1_y                                           3 	(obj:0)
$_11__1_z                                           3 	(obj:0)
$_22__1_x                                          -3 	(obj:0)
$_22__1_y                                          -3 	(obj:0)
$_26__1_x                                           3 	(obj:0)
$_26__1_y                                          -3 	(obj:0)
$_26__1_z                                         -25 	(obj:0)
$_22__1_z                                         -11 	(obj:0)
$_25__1_y                                           3 	(obj:0)
bank.pump2_hole_x                                  -3 	(obj:0)
bank.pump2_hole_y                                   3 	(obj:0)
bank.pump2_hole_z                                 -17 	(obj:0)
$_25__1_z                                         -19 	(obj:0)
bank.pump1_hole_x                                  -3 	(obj:0)
$_27__1_x                                          -3 	(obj:0)
$_27__1_y                                          -3 	(obj:0)
$_27__1_z                                          -9 	(obj:0)
bank.pump1_hole_y                                   3 	(obj:0)
bank.pump1_hole_z                                 -11 	(obj:0)
$_24__1_x                                          -3 	(obj:0)
$_24__1_y                                          -3 	(obj:0)
$_24__1_z                                           3 	(obj:0)
$_36__1_y                                          -3 	(obj:0)
$_36__1_z                                         -11 	(obj:0)
$_35__1_x                                           3 	(obj:0)
$_35__1_y                                           3 	(obj:0)
$_35__1_z                                         -11 	(obj:0)
$_12__1_x                                          -3 	(obj:0)
$_12__1_y                                          -3 	(obj:0)
